p cnf 1112 2012
c ind 1 2 3 4 5 6 7 8 9 10 11 12 13 14 15 16 17 18 19 20 21 22 23 24 25 26 27 0
-4 -1 0
-7 -1 0
-1 -4 0
-7 -4 0
-1 -7 0
-4 -7 0
-13 -10 0
-16 -10 0
-10 -13 0
-16 -13 0
-10 -16 0
-13 -16 0
-22 -19 0
-25 -19 0
-19 -22 0
-25 -22 0
-19 -25 0
-22 -25 0
-5 -2 0
-8 -2 0
-2 -5 0
-8 -5 0
-2 -8 0
-5 -8 0
-14 -11 0
-17 -11 0
-11 -14 0
-17 -14 0
-11 -17 0
-14 -17 0
-23 -20 0
-26 -20 0
-20 -23 0
-26 -23 0
-20 -26 0
-23 -26 0
-6 -3 0
-9 -3 0
-3 -6 0
-9 -6 0
-3 -9 0
-6 -9 0
-15 -12 0
-18 -12 0
-12 -15 0
-18 -15 0
-12 -18 0
-15 -18 0
-24 -21 0
-27 -21 0
-21 -24 0
-27 -24 0
-21 -27 0
-24 -27 0
-10 -1 0
-19 -1 0
-1 -10 0
-19 -10 0
-1 -19 0
-10 -19 0
-13 -4 0
-22 -4 0
-4 -13 0
-22 -13 0
-4 -22 0
-13 -22 0
-16 -7 0
-25 -7 0
-7 -16 0
-25 -16 0
-7 -25 0
-16 -25 0
-11 -2 0
-20 -2 0
-2 -11 0
-20 -11 0
-2 -20 0
-11 -20 0
-14 -5 0
-23 -5 0
-5 -14 0
-23 -14 0
-5 -23 0
-14 -23 0
-17 -8 0
-26 -8 0
-8 -17 0
-26 -17 0
-8 -26 0
-17 -26 0
-12 -3 0
-21 -3 0
-3 -12 0
-21 -12 0
-3 -21 0
-12 -21 0
-15 -6 0
-24 -6 0
-6 -15 0
-24 -15 0
-6 -24 0
-15 -24 0
-18 -9 0
-27 -9 0
-9 -18 0
-27 -18 0
-9 -27 0
-18 -27 0
-1 1 28 0
-1 4 29 0
-1 7 30 0
-1 10 31 0
-1 13 32 0
-1 16 33 0
-1 19 34 0
-1 22 35 0
-1 25 36 0
-4 1 37 0
-4 4 38 0
-4 7 39 0
-4 10 40 0
-4 13 41 0
-4 16 42 0
-4 19 43 0
-4 22 44 0
-4 25 45 0
-7 1 46 0
-7 4 47 0
-7 7 48 0
-7 10 49 0
-7 13 50 0
-7 16 51 0
-7 19 52 0
-7 22 53 0
-7 25 54 0
-10 1 55 0
-10 4 56 0
-10 7 57 0
-10 10 58 0
-10 13 59 0
-10 16 60 0
-10 19 61 0
-10 22 62 0
-10 25 63 0
-13 1 64 0
-13 4 65 0
-13 7 66 0
-13 10 67 0
-13 13 68 0
-13 16 69 0
-13 19 70 0
-13 22 71 0
-13 25 72 0
-16 1 73 0
-16 4 74 0
-16 7 75 0
-16 10 76 0
-16 13 77 0
-16 16 78 0
-16 19 79 0
-16 22 80 0
-16 25 81 0
-19 1 82 0
-19 4 83 0
-19 7 84 0
-19 10 85 0
-19 13 86 0
-19 16 87 0
-19 19 88 0
-19 22 89 0
-19 25 90 0
-22 1 91 0
-22 4 92 0
-22 7 93 0
-22 10 94 0
-22 13 95 0
-22 16 96 0
-22 19 97 0
-22 22 98 0
-22 25 99 0
-25 1 100 0
-25 4 101 0
-25 7 102 0
-25 10 103 0
-25 13 104 0
-25 16 105 0
-25 19 106 0
-25 22 107 0
-25 25 108 0
-2 2 28 0
-2 5 29 0
-2 8 30 0
-2 11 31 0
-2 14 32 0
-2 17 33 0
-2 20 34 0
-2 23 35 0
-2 26 36 0
-5 2 37 0
-5 5 38 0
-5 8 39 0
-5 11 40 0
-5 14 41 0
-5 17 42 0
-5 20 43 0
-5 23 44 0
-5 26 45 0
-8 2 46 0
-8 5 47 0
-8 8 48 0
-8 11 49 0
-8 14 50 0
-8 17 51 0
-8 20 52 0
-8 23 53 0
-8 26 54 0
-11 2 55 0
-11 5 56 0
-11 8 57 0
-11 11 58 0
-11 14 59 0
-11 17 60 0
-11 20 61 0
-11 23 62 0
-11 26 63 0
-14 2 64 0
-14 5 65 0
-14 8 66 0
-14 11 67 0
-14 14 68 0
-14 17 69 0
-14 20 70 0
-14 23 71 0
-14 26 72 0
-17 2 73 0
-17 5 74 0
-17 8 75 0
-17 11 76 0
-17 14 77 0
-17 17 78 0
-17 20 79 0
-17 23 80 0
-17 26 81 0
-20 2 82 0
-20 5 83 0
-20 8 84 0
-20 11 85 0
-20 14 86 0
-20 17 87 0
-20 20 88 0
-20 23 89 0
-20 26 90 0
-23 2 91 0
-23 5 92 0
-23 8 93 0
-23 11 94 0
-23 14 95 0
-23 17 96 0
-23 20 97 0
-23 23 98 0
-23 26 99 0
-26 2 100 0
-26 5 101 0
-26 8 102 0
-26 11 103 0
-26 14 104 0
-26 17 105 0
-26 20 106 0
-26 23 107 0
-26 26 108 0
-3 3 28 0
-3 6 29 0
-3 9 30 0
-3 12 31 0
-3 15 32 0
-3 18 33 0
-3 21 34 0
-3 24 35 0
-3 27 36 0
-6 3 37 0
-6 6 38 0
-6 9 39 0
-6 12 40 0
-6 15 41 0
-6 18 42 0
-6 21 43 0
-6 24 44 0
-6 27 45 0
-9 3 46 0
-9 6 47 0
-9 9 48 0
-9 12 49 0
-9 15 50 0
-9 18 51 0
-9 21 52 0
-9 24 53 0
-9 27 54 0
-12 3 55 0
-12 6 56 0
-12 9 57 0
-12 12 58 0
-12 15 59 0
-12 18 60 0
-12 21 61 0
-12 24 62 0
-12 27 63 0
-15 3 64 0
-15 6 65 0
-15 9 66 0
-15 12 67 0
-15 15 68 0
-15 18 69 0
-15 21 70 0
-15 24 71 0
-15 27 72 0
-18 3 73 0
-18 6 74 0
-18 9 75 0
-18 12 76 0
-18 15 77 0
-18 18 78 0
-18 21 79 0
-18 24 80 0
-18 27 81 0
-21 3 82 0
-21 6 83 0
-21 9 84 0
-21 12 85 0
-21 15 86 0
-21 18 87 0
-21 21 88 0
-21 24 89 0
-21 27 90 0
-24 3 91 0
-24 6 92 0
-24 9 93 0
-24 12 94 0
-24 15 95 0
-24 18 96 0
-24 21 97 0
-24 24 98 0
-24 27 99 0
-27 3 100 0
-27 6 101 0
-27 9 102 0
-27 12 103 0
-27 15 104 0
-27 18 105 0
-27 21 106 0
-27 24 107 0
-27 27 108 0
-1 -1 109 0
-1 -4 110 0
-1 -7 111 0
-10 -1 112 0
-10 -4 113 0
-10 -7 114 0
-19 -1 115 0
-19 -4 116 0
-19 -7 117 0
-4 -10 109 0
-4 -13 110 0
-4 -16 111 0
-13 -10 112 0
-13 -13 113 0
-13 -16 114 0
-22 -10 115 0
-22 -13 116 0
-22 -16 117 0
-7 -19 109 0
-7 -22 110 0
-7 -25 111 0
-16 -19 112 0
-16 -22 113 0
-16 -25 114 0
-25 -19 115 0
-25 -22 116 0
-25 -25 117 0
-1 -2 118 0
-1 -5 119 0
-1 -8 120 0
-10 -2 121 0
-10 -5 122 0
-10 -8 123 0
-19 -2 124 0
-19 -5 125 0
-19 -8 126 0
-4 -11 118 0
-4 -14 119 0
-4 -17 120 0
-13 -11 121 0
-13 -14 122 0
-13 -17 123 0
-22 -11 124 0
-22 -14 125 0
-22 -17 126 0
-7 -20 118 0
-7 -23 119 0
-7 -26 120 0
-16 -20 121 0
-16 -23 122 0
-16 -26 123 0
-25 -20 124 0
-25 -23 125 0
-25 -26 126 0
-1 -3 127 0
-1 -6 128 0
-1 -9 129 0
-10 -3 130 0
-10 -6 131 0
-10 -9 132 0
-19 -3 133 0
-19 -6 134 0
-19 -9 135 0
-4 -12 127 0
-4 -15 128 0
-4 -18 129 0
-13 -12 130 0
-13 -15 131 0
-13 -18 132 0
-22 -12 133 0
-22 -15 134 0
-22 -18 135 0
-7 -21 127 0
-7 -24 128 0
-7 -27 129 0
-16 -21 130 0
-16 -24 131 0
-16 -27 132 0
-25 -21 133 0
-25 -24 134 0
-25 -27 135 0
-2 -1 136 0
-2 -4 137 0
-2 -7 138 0
-11 -1 139 0
-11 -4 140 0
-11 -7 141 0
-20 -1 142 0
-20 -4 143 0
-20 -7 144 0
-5 -10 136 0
-5 -13 137 0
-5 -16 138 0
-14 -10 139 0
-14 -13 140 0
-14 -16 141 0
-23 -10 142 0
-23 -13 143 0
-23 -16 144 0
-8 -19 136 0
-8 -22 137 0
-8 -25 138 0
-17 -19 139 0
-17 -22 140 0
-17 -25 141 0
-26 -19 142 0
-26 -22 143 0
-26 -25 144 0
-2 -2 145 0
-2 -5 146 0
-2 -8 147 0
-11 -2 148 0
-11 -5 149 0
-11 -8 150 0
-20 -2 151 0
-20 -5 152 0
-20 -8 153 0
-5 -11 145 0
-5 -14 146 0
-5 -17 147 0
-14 -11 148 0
-14 -14 149 0
-14 -17 150 0
-23 -11 151 0
-23 -14 152 0
-23 -17 153 0
-8 -20 145 0
-8 -23 146 0
-8 -26 147 0
-17 -20 148 0
-17 -23 149 0
-17 -26 150 0
-26 -20 151 0
-26 -23 152 0
-26 -26 153 0
-2 -3 154 0
-2 -6 155 0
-2 -9 156 0
-11 -3 157 0
-11 -6 158 0
-11 -9 159 0
-20 -3 160 0
-20 -6 161 0
-20 -9 162 0
-5 -12 154 0
-5 -15 155 0
-5 -18 156 0
-14 -12 157 0
-14 -15 158 0
-14 -18 159 0
-23 -12 160 0
-23 -15 161 0
-23 -18 162 0
-8 -21 154 0
-8 -24 155 0
-8 -27 156 0
-17 -21 157 0
-17 -24 158 0
-17 -27 159 0
-26 -21 160 0
-26 -24 161 0
-26 -27 162 0
-3 -1 163 0
-3 -4 164 0
-3 -7 165 0
-12 -1 166 0
-12 -4 167 0
-12 -7 168 0
-21 -1 169 0
-21 -4 170 0
-21 -7 171 0
-6 -10 163 0
-6 -13 164 0
-6 -16 165 0
-15 -10 166 0
-15 -13 167 0
-15 -16 168 0
-24 -10 169 0
-24 -13 170 0
-24 -16 171 0
-9 -19 163 0
-9 -22 164 0
-9 -25 165 0
-18 -19 166 0
-18 -22 167 0
-18 -25 168 0
-27 -19 169 0
-27 -22 170 0
-27 -25 171 0
-3 -2 172 0
-3 -5 173 0
-3 -8 174 0
-12 -2 175 0
-12 -5 176 0
-12 -8 177 0
-21 -2 178 0
-21 -5 179 0
-21 -8 180 0
-6 -11 172 0
-6 -14 173 0
-6 -17 174 0
-15 -11 175 0
-15 -14 176 0
-15 -17 177 0
-24 -11 178 0
-24 -14 179 0
-24 -17 180 0
-9 -20 172 0
-9 -23 173 0
-9 -26 174 0
-18 -20 175 0
-18 -23 176 0
-18 -26 177 0
-27 -20 178 0
-27 -23 179 0
-27 -26 180 0
-3 -3 181 0
-3 -6 182 0
-3 -9 183 0
-12 -3 184 0
-12 -6 185 0
-12 -9 186 0
-21 -3 187 0
-21 -6 188 0
-21 -9 189 0
-6 -12 181 0
-6 -15 182 0
-6 -18 183 0
-15 -12 184 0
-15 -15 185 0
-15 -18 186 0
-24 -12 187 0
-24 -15 188 0
-24 -18 189 0
-9 -21 181 0
-9 -24 182 0
-9 -27 183 0
-18 -21 184 0
-18 -24 185 0
-18 -27 186 0
-27 -21 187 0
-27 -24 188 0
-27 -27 189 0
-1 -1 190 0
-4 -1 191 0
-7 -1 192 0
-10 -4 190 0
-13 -4 191 0
-16 -4 192 0
-19 -7 190 0
-22 -7 191 0
-25 -7 192 0
-1 -10 193 0
-4 -10 194 0
-7 -10 195 0
-10 -13 193 0
-13 -13 194 0
-16 -13 195 0
-19 -16 193 0
-22 -16 194 0
-25 -16 195 0
-1 -19 196 0
-4 -19 197 0
-7 -19 198 0
-10 -22 196 0
-13 -22 197 0
-16 -22 198 0
-19 -25 196 0
-22 -25 197 0
-25 -25 198 0
-1 -2 199 0
-4 -2 200 0
-7 -2 201 0
-10 -5 199 0
-13 -5 200 0
-16 -5 201 0
-19 -8 199 0
-22 -8 200 0
-25 -8 201 0
-1 -11 202 0
-4 -11 203 0
-7 -11 204 0
-10 -14 202 0
-13 -14 203 0
-16 -14 204 0
-19 -17 202 0
-22 -17 203 0
-25 -17 204 0
-1 -20 205 0
-4 -20 206 0
-7 -20 207 0
-10 -23 205 0
-13 -23 206 0
-16 -23 207 0
-19 -26 205 0
-22 -26 206 0
-25 -26 207 0
-1 -3 208 0
-4 -3 209 0
-7 -3 210 0
-10 -6 208 0
-13 -6 209 0
-16 -6 210 0
-19 -9 208 0
-22 -9 209 0
-25 -9 210 0
-1 -12 211 0
-4 -12 212 0
-7 -12 213 0
-10 -15 211 0
-13 -15 212 0
-16 -15 213 0
-19 -18 211 0
-22 -18 212 0
-25 -18 213 0
-1 -21 214 0
-4 -21 215 0
-7 -21 216 0
-10 -24 214 0
-13 -24 215 0
-16 -24 216 0
-19 -27 214 0
-22 -27 215 0
-25 -27 216 0
-2 -1 217 0
-5 -1 218 0
-8 -1 219 0
-11 -4 217 0
-14 -4 218 0
-17 -4 219 0
-20 -7 217 0
-23 -7 218 0
-26 -7 219 0
-2 -10 220 0
-5 -10 221 0
-8 -10 222 0
-11 -13 220 0
-14 -13 221 0
-17 -13 222 0
-20 -16 220 0
-23 -16 221 0
-26 -16 222 0
-2 -19 223 0
-5 -19 224 0
-8 -19 225 0
-11 -22 223 0
-14 -22 224 0
-17 -22 225 0
-20 -25 223 0
-23 -25 224 0
-26 -25 225 0
-2 -2 226 0
-5 -2 227 0
-8 -2 228 0
-11 -5 226 0
-14 -5 227 0
-17 -5 228 0
-20 -8 226 0
-23 -8 227 0
-26 -8 228 0
-2 -11 229 0
-5 -11 230 0
-8 -11 231 0
-11 -14 229 0
-14 -14 230 0
-17 -14 231 0
-20 -17 229 0
-23 -17 230 0
-26 -17 231 0
-2 -20 232 0
-5 -20 233 0
-8 -20 234 0
-11 -23 232 0
-14 -23 233 0
-17 -23 234 0
-20 -26 232 0
-23 -26 233 0
-26 -26 234 0
-2 -3 235 0
-5 -3 236 0
-8 -3 237 0
-11 -6 235 0
-14 -6 236 0
-17 -6 237 0
-20 -9 235 0
-23 -9 236 0
-26 -9 237 0
-2 -12 238 0
-5 -12 239 0
-8 -12 240 0
-11 -15 238 0
-14 -15 239 0
-17 -15 240 0
-20 -18 238 0
-23 -18 239 0
-26 -18 240 0
-2 -21 241 0
-5 -21 242 0
-8 -21 243 0
-11 -24 241 0
-14 -24 242 0
-17 -24 243 0
-20 -27 241 0
-23 -27 242 0
-26 -27 243 0
-3 -1 244 0
-6 -1 245 0
-9 -1 246 0
-12 -4 244 0
-15 -4 245 0
-18 -4 246 0
-21 -7 244 0
-24 -7 245 0
-27 -7 246 0
-3 -10 247 0
-6 -10 248 0
-9 -10 249 0
-12 -13 247 0
-15 -13 248 0
-18 -13 249 0
-21 -16 247 0
-24 -16 248 0
-27 -16 249 0
-3 -19 250 0
-6 -19 251 0
-9 -19 252 0
-12 -22 250 0
-15 -22 251 0
-18 -22 252 0
-21 -25 250 0
-24 -25 251 0
-27 -25 252 0
-3 -2 253 0
-6 -2 254 0
-9 -2 255 0
-12 -5 253 0
-15 -5 254 0
-18 -5 255 0
-21 -8 253 0
-24 -8 254 0
-27 -8 255 0
-3 -11 256 0
-6 -11 257 0
-9 -11 258 0
-12 -14 256 0
-15 -14 257 0
-18 -14 258 0
-21 -17 256 0
-24 -17 257 0
-27 -17 258 0
-3 -20 259 0
-6 -20 260 0
-9 -20 261 0
-12 -23 259 0
-15 -23 260 0
-18 -23 261 0
-21 -26 259 0
-24 -26 260 0
-27 -26 261 0
-3 -3 262 0
-6 -3 263 0
-9 -3 264 0
-12 -6 262 0
-15 -6 263 0
-18 -6 264 0
-21 -9 262 0
-24 -9 263 0
-27 -9 264 0
-3 -12 265 0
-6 -12 266 0
-9 -12 267 0
-12 -15 265 0
-15 -15 266 0
-18 -15 267 0
-21 -18 265 0
-24 -18 266 0
-27 -18 267 0
-3 -21 268 0
-6 -21 269 0
-9 -21 270 0
-12 -24 268 0
-15 -24 269 0
-18 -24 270 0
-21 -27 268 0
-24 -27 269 0
-27 -27 270 0
-28 -109 -190 0
-28 -110 -191 0
-28 -111 -192 0
-28 -112 -193 0
-28 -113 -194 0
-28 -114 -195 0
-28 -115 -196 0
-28 -116 -197 0
-28 -117 -198 0
-29 -118 -190 0
-29 -119 -191 0
-29 -120 -192 0
-29 -121 -193 0
-29 -122 -194 0
-29 -123 -195 0
-29 -124 -196 0
-29 -125 -197 0
-29 -126 -198 0
-30 -127 -190 0
-30 -128 -191 0
-30 -129 -192 0
-30 -130 -193 0
-30 -131 -194 0
-30 -132 -195 0
-30 -133 -196 0
-30 -134 -197 0
-30 -135 -198 0
-31 -109 -199 0
-31 -110 -200 0
-31 -111 -201 0
-31 -112 -202 0
-31 -113 -203 0
-31 -114 -204 0
-31 -115 -205 0
-31 -116 -206 0
-31 -117 -207 0
-32 -118 -199 0
-32 -119 -200 0
-32 -120 -201 0
-32 -121 -202 0
-32 -122 -203 0
-32 -123 -204 0
-32 -124 -205 0
-32 -125 -206 0
-32 -126 -207 0
-33 -127 -199 0
-33 -128 -200 0
-33 -129 -201 0
-33 -130 -202 0
-33 -131 -203 0
-33 -132 -204 0
-33 -133 -205 0
-33 -134 -206 0
-33 -135 -207 0
-34 -109 -208 0
-34 -110 -209 0
-34 -111 -210 0
-34 -112 -211 0
-34 -113 -212 0
-34 -114 -213 0
-34 -115 -214 0
-34 -116 -215 0
-34 -117 -216 0
-35 -118 -208 0
-35 -119 -209 0
-35 -120 -210 0
-35 -121 -211 0
-35 -122 -212 0
-35 -123 -213 0
-35 -124 -214 0
-35 -125 -215 0
-35 -126 -216 0
-36 -127 -208 0
-36 -128 -209 0
-36 -129 -210 0
-36 -130 -211 0
-36 -131 -212 0
-36 -132 -213 0
-36 -133 -214 0
-36 -134 -215 0
-36 -135 -216 0
-37 -109 -217 0
-37 -110 -218 0
-37 -111 -219 0
-37 -112 -220 0
-37 -113 -221 0
-37 -114 -222 0
-37 -115 -223 0
-37 -116 -224 0
-37 -117 -225 0
-38 -118 -217 0
-38 -119 -218 0
-38 -120 -219 0
-38 -121 -220 0
-38 -122 -221 0
-38 -123 -222 0
-38 -124 -223 0
-38 -125 -224 0
-38 -126 -225 0
-39 -127 -217 0
-39 -128 -218 0
-39 -129 -219 0
-39 -130 -220 0
-39 -131 -221 0
-39 -132 -222 0
-39 -133 -223 0
-39 -134 -224 0
-39 -135 -225 0
-40 -109 -226 0
-40 -110 -227 0
-40 -111 -228 0
-40 -112 -229 0
-40 -113 -230 0
-40 -114 -231 0
-40 -115 -232 0
-40 -116 -233 0
-40 -117 -234 0
-41 -118 -226 0
-41 -119 -227 0
-41 -120 -228 0
-41 -121 -229 0
-41 -122 -230 0
-41 -123 -231 0
-41 -124 -232 0
-41 -125 -233 0
-41 -126 -234 0
-42 -127 -226 0
-42 -128 -227 0
-42 -129 -228 0
-42 -130 -229 0
-42 -131 -230 0
-42 -132 -231 0
-42 -133 -232 0
-42 -134 -233 0
-42 -135 -234 0
-43 -109 -235 0
-43 -110 -236 0
-43 -111 -237 0
-43 -112 -238 0
-43 -113 -239 0
-43 -114 -240 0
-43 -115 -241 0
-43 -116 -242 0
-43 -117 -243 0
-44 -118 -235 0
-44 -119 -236 0
-44 -120 -237 0
-44 -121 -238 0
-44 -122 -239 0
-44 -123 -240 0
-44 -124 -241 0
-44 -125 -242 0
-44 -126 -243 0
-45 -127 -235 0
-45 -128 -236 0
-45 -129 -237 0
-45 -130 -238 0
-45 -131 -239 0
-45 -132 -240 0
-45 -133 -241 0
-45 -134 -242 0
-45 -135 -243 0
-46 -109 -244 0
-46 -110 -245 0
-46 -111 -246 0
-46 -112 -247 0
-46 -113 -248 0
-46 -114 -249 0
-46 -115 -250 0
-46 -116 -251 0
-46 -117 -252 0
-47 -118 -244 0
-47 -119 -245 0
-47 -120 -246 0
-47 -121 -247 0
-47 -122 -248 0
-47 -123 -249 0
-47 -124 -250 0
-47 -125 -251 0
-47 -126 -252 0
-48 -127 -244 0
-48 -128 -245 0
-48 -129 -246 0
-48 -130 -247 0
-48 -131 -248 0
-48 -132 -249 0
-48 -133 -250 0
-48 -134 -251 0
-48 -135 -252 0
-49 -109 -253 0
-49 -110 -254 0
-49 -111 -255 0
-49 -112 -256 0
-49 -113 -257 0
-49 -114 -258 0
-49 -115 -259 0
-49 -116 -260 0
-49 -117 -261 0
-50 -118 -253 0
-50 -119 -254 0
-50 -120 -255 0
-50 -121 -256 0
-50 -122 -257 0
-50 -123 -258 0
-50 -124 -259 0
-50 -125 -260 0
-50 -126 -261 0
-51 -127 -253 0
-51 -128 -254 0
-51 -129 -255 0
-51 -130 -256 0
-51 -131 -257 0
-51 -132 -258 0
-51 -133 -259 0
-51 -134 -260 0
-51 -135 -261 0
-52 -109 -262 0
-52 -110 -263 0
-52 -111 -264 0
-52 -112 -265 0
-52 -113 -266 0
-52 -114 -267 0
-52 -115 -268 0
-52 -116 -269 0
-52 -117 -270 0
-53 -118 -262 0
-53 -119 -263 0
-53 -120 -264 0
-53 -121 -265 0
-53 -122 -266 0
-53 -123 -267 0
-53 -124 -268 0
-53 -125 -269 0
-53 -126 -270 0
-54 -127 -262 0
-54 -128 -263 0
-54 -129 -264 0
-54 -130 -265 0
-54 -131 -266 0
-54 -132 -267 0
-54 -133 -268 0
-54 -134 -269 0
-54 -135 -270 0
-55 -136 -190 0
-55 -137 -191 0
-55 -138 -192 0
-55 -139 -193 0
-55 -140 -194 0
-55 -141 -195 0
-55 -142 -196 0
-55 -143 -197 0
-55 -144 -198 0
-56 -145 -190 0
-56 -146 -191 0
-56 -147 -192 0
-56 -148 -193 0
-56 -149 -194 0
-56 -150 -195 0
-56 -151 -196 0
-56 -152 -197 0
-56 -153 -198 0
-57 -154 -190 0
-57 -155 -191 0
-57 -156 -192 0
-57 -157 -193 0
-57 -158 -194 0
-57 -159 -195 0
-57 -160 -196 0
-57 -161 -197 0
-57 -162 -198 0
-58 -136 -199 0
-58 -137 -200 0
-58 -138 -201 0
-58 -139 -202 0
-58 -140 -203 0
-58 -141 -204 0
-58 -142 -205 0
-58 -143 -206 0
-58 -144 -207 0
-59 -145 -199 0
-59 -146 -200 0
-59 -147 -201 0
-59 -148 -202 0
-59 -149 -203 0
-59 -150 -204 0
-59 -151 -205 0
-59 -152 -206 0
-59 -153 -207 0
-60 -154 -199 0
-60 -155 -200 0
-60 -156 -201 0
-60 -157 -202 0
-60 -158 -203 0
-60 -159 -204 0
-60 -160 -205 0
-60 -161 -206 0
-60 -162 -207 0
-61 -136 -208 0
-61 -137 -209 0
-61 -138 -210 0
-61 -139 -211 0
-61 -140 -212 0
-61 -141 -213 0
-61 -142 -214 0
-61 -143 -215 0
-61 -144 -216 0
-62 -145 -208 0
-62 -146 -209 0
-62 -147 -210 0
-62 -148 -211 0
-62 -149 -212 0
-62 -150 -213 0
-62 -151 -214 0
-62 -152 -215 0
-62 -153 -216 0
-63 -154 -208 0
-63 -155 -209 0
-63 -156 -210 0
-63 -157 -211 0
-63 -158 -212 0
-63 -159 -213 0
-63 -160 -214 0
-63 -161 -215 0
-63 -162 -216 0
-64 -136 -217 0
-64 -137 -218 0
-64 -138 -219 0
-64 -139 -220 0
-64 -140 -221 0
-64 -141 -222 0
-64 -142 -223 0
-64 -143 -224 0
-64 -144 -225 0
-65 -145 -217 0
-65 -146 -218 0
-65 -147 -219 0
-65 -148 -220 0
-65 -149 -221 0
-65 -150 -222 0
-65 -151 -223 0
-65 -152 -224 0
-65 -153 -225 0
-66 -154 -217 0
-66 -155 -218 0
-66 -156 -219 0
-66 -157 -220 0
-66 -158 -221 0
-66 -159 -222 0
-66 -160 -223 0
-66 -161 -224 0
-66 -162 -225 0
-67 -136 -226 0
-67 -137 -227 0
-67 -138 -228 0
-67 -139 -229 0
-67 -140 -230 0
-67 -141 -231 0
-67 -142 -232 0
-67 -143 -233 0
-67 -144 -234 0
-68 -145 -226 0
-68 -146 -227 0
-68 -147 -228 0
-68 -148 -229 0
-68 -149 -230 0
-68 -150 -231 0
-68 -151 -232 0
-68 -152 -233 0
-68 -153 -234 0
-69 -154 -226 0
-69 -155 -227 0
-69 -156 -228 0
-69 -157 -229 0
-69 -158 -230 0
-69 -159 -231 0
-69 -160 -232 0
-69 -161 -233 0
-69 -162 -234 0
-70 -136 -235 0
-70 -137 -236 0
-70 -138 -237 0
-70 -139 -238 0
-70 -140 -239 0
-70 -141 -240 0
-70 -142 -241 0
-70 -143 -242 0
-70 -144 -243 0
-71 -145 -235 0
-71 -146 -236 0
-71 -147 -237 0
-71 -148 -238 0
-71 -149 -239 0
-71 -150 -240 0
-71 -151 -241 0
-71 -152 -242 0
-71 -153 -243 0
-72 -154 -235 0
-72 -155 -236 0
-72 -156 -237 0
-72 -157 -238 0
-72 -158 -239 0
-72 -159 -240 0
-72 -160 -241 0
-72 -161 -242 0
-72 -162 -243 0
-73 -136 -244 0
-73 -137 -245 0
-73 -138 -246 0
-73 -139 -247 0
-73 -140 -248 0
-73 -141 -249 0
-73 -142 -250 0
-73 -143 -251 0
-73 -144 -252 0
-74 -145 -244 0
-74 -146 -245 0
-74 -147 -246 0
-74 -148 -247 0
-74 -149 -248 0
-74 -150 -249 0
-74 -151 -250 0
-74 -152 -251 0
-74 -153 -252 0
-75 -154 -244 0
-75 -155 -245 0
-75 -156 -246 0
-75 -157 -247 0
-75 -158 -248 0
-75 -159 -249 0
-75 -160 -250 0
-75 -161 -251 0
-75 -162 -252 0
-76 -136 -253 0
-76 -137 -254 0
-76 -138 -255 0
-76 -139 -256 0
-76 -140 -257 0
-76 -141 -258 0
-76 -142 -259 0
-76 -143 -260 0
-76 -144 -261 0
-77 -145 -253 0
-77 -146 -254 0
-77 -147 -255 0
-77 -148 -256 0
-77 -149 -257 0
-77 -150 -258 0
-77 -151 -259 0
-77 -152 -260 0
-77 -153 -261 0
-78 -154 -253 0
-78 -155 -254 0
-78 -156 -255 0
-78 -157 -256 0
-78 -158 -257 0
-78 -159 -258 0
-78 -160 -259 0
-78 -161 -260 0
-78 -162 -261 0
-79 -136 -262 0
-79 -137 -263 0
-79 -138 -264 0
-79 -139 -265 0
-79 -140 -266 0
-79 -141 -267 0
-79 -142 -268 0
-79 -143 -269 0
-79 -144 -270 0
-80 -145 -262 0
-80 -146 -263 0
-80 -147 -264 0
-80 -148 -265 0
-80 -149 -266 0
-80 -150 -267 0
-80 -151 -268 0
-80 -152 -269 0
-80 -153 -270 0
-81 -154 -262 0
-81 -155 -263 0
-81 -156 -264 0
-81 -157 -265 0
-81 -158 -266 0
-81 -159 -267 0
-81 -160 -268 0
-81 -161 -269 0
-81 -162 -270 0
-82 -163 -190 0
-82 -164 -191 0
-82 -165 -192 0
-82 -166 -193 0
-82 -167 -194 0
-82 -168 -195 0
-82 -169 -196 0
-82 -170 -197 0
-82 -171 -198 0
-83 -172 -190 0
-83 -173 -191 0
-83 -174 -192 0
-83 -175 -193 0
-83 -176 -194 0
-83 -177 -195 0
-83 -178 -196 0
-83 -179 -197 0
-83 -180 -198 0
-84 -181 -190 0
-84 -182 -191 0
-84 -183 -192 0
-84 -184 -193 0
-84 -185 -194 0
-84 -186 -195 0
-84 -187 -196 0
-84 -188 -197 0
-84 -189 -198 0
-85 -163 -199 0
-85 -164 -200 0
-85 -165 -201 0
-85 -166 -202 0
-85 -167 -203 0
-85 -168 -204 0
-85 -169 -205 0
-85 -170 -206 0
-85 -171 -207 0
-86 -172 -199 0
-86 -173 -200 0
-86 -174 -201 0
-86 -175 -202 0
-86 -176 -203 0
-86 -177 -204 0
-86 -178 -205 0
-86 -179 -206 0
-86 -180 -207 0
-87 -181 -199 0
-87 -182 -200 0
-87 -183 -201 0
-87 -184 -202 0
-87 -185 -203 0
-87 -186 -204 0
-87 -187 -205 0
-87 -188 -206 0
-87 -189 -207 0
-88 -163 -208 0
-88 -164 -209 0
-88 -165 -210 0
-88 -166 -211 0
-88 -167 -212 0
-88 -168 -213 0
-88 -169 -214 0
-88 -170 -215 0
-88 -171 -216 0
-89 -172 -208 0
-89 -173 -209 0
-89 -174 -210 0
-89 -175 -211 0
-89 -176 -212 0
-89 -177 -213 0
-89 -178 -214 0
-89 -179 -215 0
-89 -180 -216 0
-90 -181 -208 0
-90 -182 -209 0
-90 -183 -210 0
-90 -184 -211 0
-90 -185 -212 0
-90 -186 -213 0
-90 -187 -214 0
-90 -188 -215 0
-90 -189 -216 0
-91 -163 -217 0
-91 -164 -218 0
-91 -165 -219 0
-91 -166 -220 0
-91 -167 -221 0
-91 -168 -222 0
-91 -169 -223 0
-91 -170 -224 0
-91 -171 -225 0
-92 -172 -217 0
-92 -173 -218 0
-92 -174 -219 0
-92 -175 -220 0
-92 -176 -221 0
-92 -177 -222 0
-92 -178 -223 0
-92 -179 -224 0
-92 -180 -225 0
-93 -181 -217 0
-93 -182 -218 0
-93 -183 -219 0
-93 -184 -220 0
-93 -185 -221 0
-93 -186 -222 0
-93 -187 -223 0
-93 -188 -224 0
-93 -189 -225 0
-94 -163 -226 0
-94 -164 -227 0
-94 -165 -228 0
-94 -166 -229 0
-94 -167 -230 0
-94 -168 -231 0
-94 -169 -232 0
-94 -170 -233 0
-94 -171 -234 0
-95 -172 -226 0
-95 -173 -227 0
-95 -174 -228 0
-95 -175 -229 0
-95 -176 -230 0
-95 -177 -231 0
-95 -178 -232 0
-95 -179 -233 0
-95 -180 -234 0
-96 -181 -226 0
-96 -182 -227 0
-96 -183 -228 0
-96 -184 -229 0
-96 -185 -230 0
-96 -186 -231 0
-96 -187 -232 0
-96 -188 -233 0
-96 -189 -234 0
-97 -163 -235 0
-97 -164 -236 0
-97 -165 -237 0
-97 -166 -238 0
-97 -167 -239 0
-97 -168 -240 0
-97 -169 -241 0
-97 -170 -242 0
-97 -171 -243 0
-98 -172 -235 0
-98 -173 -236 0
-98 -174 -237 0
-98 -175 -238 0
-98 -176 -239 0
-98 -177 -240 0
-98 -178 -241 0
-98 -179 -242 0
-98 -180 -243 0
-99 -181 -235 0
-99 -182 -236 0
-99 -183 -237 0
-99 -184 -238 0
-99 -185 -239 0
-99 -186 -240 0
-99 -187 -241 0
-99 -188 -242 0
-99 -189 -243 0
-100 -163 -244 0
-100 -164 -245 0
-100 -165 -246 0
-100 -166 -247 0
-100 -167 -248 0
-100 -168 -249 0
-100 -169 -250 0
-100 -170 -251 0
-100 -171 -252 0
-101 -172 -244 0
-101 -173 -245 0
-101 -174 -246 0
-101 -175 -247 0
-101 -176 -248 0
-101 -177 -249 0
-101 -178 -250 0
-101 -179 -251 0
-101 -180 -252 0
-102 -181 -244 0
-102 -182 -245 0
-102 -183 -246 0
-102 -184 -247 0
-102 -185 -248 0
-102 -186 -249 0
-102 -187 -250 0
-102 -188 -251 0
-102 -189 -252 0
-103 -163 -253 0
-103 -164 -254 0
-103 -165 -255 0
-103 -166 -256 0
-103 -167 -257 0
-103 -168 -258 0
-103 -169 -259 0
-103 -170 -260 0
-103 -171 -261 0
-104 -172 -253 0
-104 -173 -254 0
-104 -174 -255 0
-104 -175 -256 0
-104 -176 -257 0
-104 -177 -258 0
-104 -178 -259 0
-104 -179 -260 0
-104 -180 -261 0
-105 -181 -253 0
-105 -182 -254 0
-105 -183 -255 0
-105 -184 -256 0
-105 -185 -257 0
-105 -186 -258 0
-105 -187 -259 0
-105 -188 -260 0
-105 -189 -261 0
-106 -163 -262 0
-106 -164 -263 0
-106 -165 -264 0
-106 -166 -265 0
-106 -167 -266 0
-106 -168 -267 0
-106 -169 -268 0
-106 -170 -269 0
-106 -171 -270 0
-107 -172 -262 0
-107 -173 -263 0
-107 -174 -264 0
-107 -175 -265 0
-107 -176 -266 0
-107 -177 -267 0
-107 -178 -268 0
-107 -179 -269 0
-107 -180 -270 0
-108 -181 -262 0
-108 -182 -263 0
-108 -183 -264 0
-108 -184 -265 0
-108 -185 -266 0
-108 -186 -267 0
-108 -187 -268 0
-108 -188 -269 0
-108 -189 -270 0
1 2 3 0
-1 -2 0
-1 -3 0
-2 -3 0
4 5 6 0
-4 -5 0
-4 -6 0
-5 -6 0
7 8 9 0
-7 -8 0
-7 -9 0
-8 -9 0
10 11 12 0
-10 -11 0
-10 -12 0
-11 -12 0
13 14 15 0
-13 -14 0
-13 -15 0
-14 -15 0
16 17 18 0
-16 -17 0
-16 -18 0
-17 -18 0
19 20 21 0
-19 -20 0
-19 -21 0
-20 -21 0
22 23 24 0
-22 -23 0
-22 -24 0
-23 -24 0
25 26 27 0
-25 -26 0
-25 -27 0
-26 -27 0
-1035 -1 25 26 0
-1035 -2 25 0
-1035 -3 0
-1036 -1 27 0
-1036 -2 26 0
-1036 -3 25 0
1035 1036 0
1035 1037 0
-1037 1038 1039 0
-1037 1038 1040 0
-1040 1041 1042 0
-1040 1041 1043 0
-1043 1044 1045 0
-1043 1044 1046 0
-1046 1047 1048 0
-1046 1047 1049 0
-1049 1050 1051 0
-1049 1050 1052 0
-1052 1053 1054 0
-1052 1053 1055 0
-1055 1056 1057 0
-1055 1056 1058 0
-1058 1059 1060 0
-1038 -4 22 23 0
-1038 -5 22 0
-1038 -6 0
-1039 -4 24 0
-1039 -5 23 0
-1039 -6 22 0
1035 1036 0
1035 1037 0
-1037 1038 1039 0
-1037 1038 1040 0
-1040 1041 1042 0
-1040 1041 1043 0
-1043 1044 1045 0
-1043 1044 1046 0
-1046 1047 1048 0
-1046 1047 1049 0
-1049 1050 1051 0
-1049 1050 1052 0
-1052 1053 1054 0
-1052 1053 1055 0
-1055 1056 1057 0
-1055 1056 1058 0
-1058 1059 1060 0
-1041 -7 19 20 0
-1041 -8 19 0
-1041 -9 0
-1042 -7 21 0
-1042 -8 20 0
-1042 -9 19 0
1035 1036 0
1035 1037 0
-1037 1038 1039 0
-1037 1038 1040 0
-1040 1041 1042 0
-1040 1041 1043 0
-1043 1044 1045 0
-1043 1044 1046 0
-1046 1047 1048 0
-1046 1047 1049 0
-1049 1050 1051 0
-1049 1050 1052 0
-1052 1053 1054 0
-1052 1053 1055 0
-1055 1056 1057 0
-1055 1056 1058 0
-1058 1059 1060 0
-1044 -10 16 17 0
-1044 -11 16 0
-1044 -12 0
-1045 -10 18 0
-1045 -11 17 0
-1045 -12 16 0
1035 1036 0
1035 1037 0
-1037 1038 1039 0
-1037 1038 1040 0
-1040 1041 1042 0
-1040 1041 1043 0
-1043 1044 1045 0
-1043 1044 1046 0
-1046 1047 1048 0
-1046 1047 1049 0
-1049 1050 1051 0
-1049 1050 1052 0
-1052 1053 1054 0
-1052 1053 1055 0
-1055 1056 1057 0
-1055 1056 1058 0
-1058 1059 1060 0
-1047 13 0
-1048 14 0
1035 1036 0
1035 1037 0
-1037 1038 1039 0
-1037 1038 1040 0
-1040 1041 1042 0
-1040 1041 1043 0
-1043 1044 1045 0
-1043 1044 1046 0
-1046 1047 1048 0
-1046 1047 1049 0
-1049 1050 1051 0
-1049 1050 1052 0
-1052 1053 1054 0
-1052 1053 1055 0
-1055 1056 1057 0
-1055 1056 1058 0
-1058 1059 1060 0
-1050 -16 10 11 0
-1050 -17 10 0
-1050 -18 0
-1051 -16 12 0
-1051 -17 11 0
-1051 -18 10 0
1035 1036 0
1035 1037 0
-1037 1038 1039 0
-1037 1038 1040 0
-1040 1041 1042 0
-1040 1041 1043 0
-1043 1044 1045 0
-1043 1044 1046 0
-1046 1047 1048 0
-1046 1047 1049 0
-1049 1050 1051 0
-1049 1050 1052 0
-1052 1053 1054 0
-1052 1053 1055 0
-1055 1056 1057 0
-1055 1056 1058 0
-1058 1059 1060 0
-1053 -19 7 8 0
-1053 -20 7 0
-1053 -21 0
-1054 -19 9 0
-1054 -20 8 0
-1054 -21 7 0
1035 1036 0
1035 1037 0
-1037 1038 1039 0
-1037 1038 1040 0
-1040 1041 1042 0
-1040 1041 1043 0
-1043 1044 1045 0
-1043 1044 1046 0
-1046 1047 1048 0
-1046 1047 1049 0
-1049 1050 1051 0
-1049 1050 1052 0
-1052 1053 1054 0
-1052 1053 1055 0
-1055 1056 1057 0
-1055 1056 1058 0
-1058 1059 1060 0
-1056 -22 4 5 0
-1056 -23 4 0
-1056 -24 0
-1057 -22 6 0
-1057 -23 5 0
-1057 -24 4 0
1035 1036 0
1035 1037 0
-1037 1038 1039 0
-1037 1038 1040 0
-1040 1041 1042 0
-1040 1041 1043 0
-1043 1044 1045 0
-1043 1044 1046 0
-1046 1047 1048 0
-1046 1047 1049 0
-1049 1050 1051 0
-1049 1050 1052 0
-1052 1053 1054 0
-1052 1053 1055 0
-1055 1056 1057 0
-1055 1056 1058 0
-1058 1059 1060 0
-1059 -25 1 2 0
-1059 -26 1 0
-1059 -27 0
-1060 -25 3 0
-1060 -26 2 0
-1060 -27 1 0
1035 1036 0
1035 1037 0
-1037 1038 1039 0
-1037 1038 1040 0
-1040 1041 1042 0
-1040 1041 1043 0
-1043 1044 1045 0
-1043 1044 1046 0
-1046 1047 1048 0
-1046 1047 1049 0
-1049 1050 1051 0
-1049 1050 1052 0
-1052 1053 1054 0
-1052 1053 1055 0
-1055 1056 1057 0
-1055 1056 1058 0
-1058 1059 1060 0
-1087 -1 13 15 0
-1087 -2 13 0
-1087 -3 0
-1088 -1 14 0
-1088 -2 15 0
-1088 -3 13 0
1087 1088 0
1087 1089 0
-1089 1090 1091 0
-1089 1090 1092 0
-1092 1093 1094 0
-1092 1093 1095 0
-1095 1096 1097 0
-1095 1096 1098 0
-1098 1099 1100 0
-1098 1099 1101 0
-1101 1102 1103 0
-1101 1102 1104 0
-1104 1105 1106 0
-1104 1105 1107 0
-1107 1108 1109 0
-1107 1108 1110 0
-1110 1111 1112 0
-1090 -4 16 18 0
-1090 -5 16 0
-1090 -6 0
-1091 -4 17 0
-1091 -5 18 0
-1091 -6 16 0
1087 1088 0
1087 1089 0
-1089 1090 1091 0
-1089 1090 1092 0
-1092 1093 1094 0
-1092 1093 1095 0
-1095 1096 1097 0
-1095 1096 1098 0
-1098 1099 1100 0
-1098 1099 1101 0
-1101 1102 1103 0
-1101 1102 1104 0
-1104 1105 1106 0
-1104 1105 1107 0
-1107 1108 1109 0
-1107 1108 1110 0
-1110 1111 1112 0
-1093 -7 10 12 0
-1093 -8 10 0
-1093 -9 0
-1094 -7 11 0
-1094 -8 12 0
-1094 -9 10 0
1087 1088 0
1087 1089 0
-1089 1090 1091 0
-1089 1090 1092 0
-1092 1093 1094 0
-1092 1093 1095 0
-1095 1096 1097 0
-1095 1096 1098 0
-1098 1099 1100 0
-1098 1099 1101 0
-1101 1102 1103 0
-1101 1102 1104 0
-1104 1105 1106 0
-1104 1105 1107 0
-1107 1108 1109 0
-1107 1108 1110 0
-1110 1111 1112 0
-1096 -10 22 24 0
-1096 -11 22 0
-1096 -12 0
-1097 -10 23 0
-1097 -11 24 0
-1097 -12 22 0
1087 1088 0
1087 1089 0
-1089 1090 1091 0
-1089 1090 1092 0
-1092 1093 1094 0
-1092 1093 1095 0
-1095 1096 1097 0
-1095 1096 1098 0
-1098 1099 1100 0
-1098 1099 1101 0
-1101 1102 1103 0
-1101 1102 1104 0
-1104 1105 1106 0
-1104 1105 1107 0
-1107 1108 1109 0
-1107 1108 1110 0
-1110 1111 1112 0
-1099 -13 25 27 0
-1099 -14 25 0
-1099 -15 0
-1100 -13 26 0
-1100 -14 27 0
-1100 -15 25 0
1087 1088 0
1087 1089 0
-1089 1090 1091 0
-1089 1090 1092 0
-1092 1093 1094 0
-1092 1093 1095 0
-1095 1096 1097 0
-1095 1096 1098 0
-1098 1099 1100 0
-1098 1099 1101 0
-1101 1102 1103 0
-1101 1102 1104 0
-1104 1105 1106 0
-1104 1105 1107 0
-1107 1108 1109 0
-1107 1108 1110 0
-1110 1111 1112 0
-1102 -16 19 21 0
-1102 -17 19 0
-1102 -18 0
-1103 -16 20 0
-1103 -17 21 0
-1103 -18 19 0
1087 1088 0
1087 1089 0
-1089 1090 1091 0
-1089 1090 1092 0
-1092 1093 1094 0
-1092 1093 1095 0
-1095 1096 1097 0
-1095 1096 1098 0
-1098 1099 1100 0
-1098 1099 1101 0
-1101 1102 1103 0
-1101 1102 1104 0
-1104 1105 1106 0
-1104 1105 1107 0
-1107 1108 1109 0
-1107 1108 1110 0
-1110 1111 1112 0
-1105 -19 4 6 0
-1105 -20 4 0
-1105 -21 0
-1106 -19 5 0
-1106 -20 6 0
-1106 -21 4 0
1087 1088 0
1087 1089 0
-1089 1090 1091 0
-1089 1090 1092 0
-1092 1093 1094 0
-1092 1093 1095 0
-1095 1096 1097 0
-1095 1096 1098 0
-1098 1099 1100 0
-1098 1099 1101 0
-1101 1102 1103 0
-1101 1102 1104 0
-1104 1105 1106 0
-1104 1105 1107 0
-1107 1108 1109 0
-1107 1108 1110 0
-1110 1111 1112 0
-1108 -22 7 9 0
-1108 -23 7 0
-1108 -24 0
-1109 -22 8 0
-1109 -23 9 0
-1109 -24 7 0
1087 1088 0
1087 1089 0
-1089 1090 1091 0
-1089 1090 1092 0
-1092 1093 1094 0
-1092 1093 1095 0
-1095 1096 1097 0
-1095 1096 1098 0
-1098 1099 1100 0
-1098 1099 1101 0
-1101 1102 1103 0
-1101 1102 1104 0
-1104 1105 1106 0
-1104 1105 1107 0
-1107 1108 1109 0
-1107 1108 1110 0
-1110 1111 1112 0
-1111 -25 1 3 0
-1111 -26 1 0
-1111 -27 0
-1112 -25 2 0
-1112 -26 3 0
-1112 -27 1 0
1087 1088 0
1087 1089 0
-1089 1090 1091 0
-1089 1090 1092 0
-1092 1093 1094 0
-1092 1093 1095 0
-1095 1096 1097 0
-1095 1096 1098 0
-1098 1099 1100 0
-1098 1099 1101 0
-1101 1102 1103 0
-1101 1102 1104 0
-1104 1105 1106 0
-1104 1105 1107 0
-1107 1108 1109 0
-1107 1108 1110 0
-1110 1111 1112 0
